#~~~~~~~~~~~~~~~~~~~~~~~~
# one SCE cell randomly initialized
# test sce atom type
# test sce ext potential
#~~~~~~~~~~~~~~~~~~~~~~~~

#+++++++++++++++++++
# INITIALIZATION
#+++++++++++++++++++
# units in um, ug, s
units      cell
dimension  3
newton     off
processors * * *
boundary   m m m
atom_style semEM
compute_modify thermo_temp dynamic yes
atom_modify map yes

#+++++++++++++++++++
# PAIRWISE NEIGHBOUR LIST
#+++++++++++++++++++
neighbor      0.45235 bin
neigh_modify  delay 5

read_restart /home/chattaraj_s/optimizer/pot12_23_modified/cyto_stiffness/cell_mult_nuc_1.restart
#create_atoms 4 single 0 0 20
set type 3 cellpart 4
set type 4 cellpart 5
variable    cellelem atom "type == 1 || type == 2"
group cell_group dynamic all var cellelem
group cyto type 1
group nucleus type 2
group ecm_glass type 3 4
region bottom_block block -50 50 -50 50 -11 -9.5 units box
group bottom region bottom_block

#+++++++++++++++++++
# DEFINE POTENTIALS
#+++++++++++++++++++
# SEM potential with global cutoff 2.5*r_eq
pair_style    hybrid semEMp {{2.5*2*Rcell*(pd/N)**(1/3)}} semNucM {{2.5*2*Rcell*(pd/N)**(1/3)}} lj/cut {{5+2.5*2*Rcell*(pd/N)**(1/3)}}
pair_coeff    1 1 semEMp {{(kappa0 / 1e-21 * N**(-1.0 / 3.0) * (1.0 - mylambda * N**(-1.0 / 3.0))) * (2.0 * Rcell * (pd / N)**(1.0 / 3.0))**2.0 * 1e-12 / (8.0 * rho**2.0)}} {{(kappa0 / 1e-21 * N**(-1.0 / 3.0) * (1.0 - mylambda * N**(-1.0 / 3.0))) / 2.5 * (2.0 * Rcell * (pd / N)**(1.0 / 3.0))**2.0 * 1e-12 / (8.0 * rho**2.0)}} 2 2 2 2 {{2*Rcell*(pd/N)**(1/3)}} {{1 / (2*(pd/N)**(1/3))}} {{2.5*2*Rcell*(pd/N)**(1/3)}}
pair_coeff    1 2 semNucM {{k12 * (kappa0 / 1e-21 * N**(-1.0 / 3.0) * (1.0 - mylambda * N**(-1.0 / 3.0))) * (2.0 * Rcell * (pd / N)**(1.0 / 3.0))**2.0 * 1e-12 / (8.0 * rho**2.0)}} 2 2 {{2*Rcell*(pd/N)**(1/3)}} {{1 / (2*(pd/N)**(1/3))}} 0 {{2.5*2*Rcell*(pd/N)**(1/3)}}
pair_coeff    2 2 semEMp {{(kappa_nuc / 1e-21 * N**(-1.0 / 3.0) * (1.0 - mylambda * N**(-1.0 / 3.0))) * (2.0 * Rcell * (pd / N)**(1.0 / 3.0))**2.0 * 1e-12 / (8.0 * rho**2.0)}} 0.0 2 2 2 2 {{2*Rcell*(pd/N)**(1/3)}} {{1 / (2*(pd/N)**(1/3))}} {{2.5*2*Rcell*(pd/N)**(1/3)}}
pair_coeff    1 3 lj/cut 60000 5 15
pair_coeff    2 3 none
pair_coeff    3 3 none
pair_coeff    1 4 lj/cut 50000 5 5
pair_coeff    2 4 none
pair_coeff    3 4 none
pair_coeff    4 4 none
pair_coeff    1 5 none
pair_coeff    2 5 none
pair_coeff    3 5 none
pair_coeff    4 5 none
pair_coeff    5 5 none
pair_coeff    1 6 none
pair_coeff    2 6 none
pair_coeff    3 6 none
pair_coeff    4 6 none
pair_coeff    5 6 none
pair_coeff    6 6 none
timestep 0.001
compute strs cell_group stress/atom NULL
variable vol_stress atom (c_strs[1]+c_strs[2]+c_strs[3])/3
#+++++++++++++++++++
# DEFINE FIXES
#+++++++++++++++++++
# Do BD using Langevin fix for random fluctuations
# args = T T tau rseed
fix  1 cyto langevin 57943.7 57943.7 {{ 1e-9 * 3.10172e-03 / eta0 }} 60253
# BD requires same tau as for Langevin
fix  2 cyto bd {{ 1e-9 * 3.10172e-03 / eta0 }}
fix  3 nucleus langevin 57943.7 57943.7 {{ 1e-9 * 3.10172e-03 / eta_nuc }} 91830
fix  4 nucleus bd {{ 1e-9 * 3.10172e-03 / eta_nuc }}
#thermo_style custom step temp pres
thermo 1000
compute nuc_centreofmass nucleus com
compute perim bottom coord/atom cutoff 2.0
thermo_style custom step temp press etotal pe ke c_nuc_centreofmass[*]
dump 1 cell_group custom 1000 dump.atom_info id type x y z c_perim
dump 2 cell_group xyzSemEM 1000 cell.xyz
run 0
variable peri_atom atom "c_perim>0 && c_perim<8"
group peri_atom_grp variable peri_atom
fix peri_velocity peri_atom_grp move linear 0 0 0
run 100000
undump 1
undump 2
variable nuc_cmx equal $(c_nuc_centreofmass[1])
variable nuc_cmy equal $(c_nuc_centreofmass[2])
variable z_ind equal 10
variable x equal vdisplace(v_z_ind,-1)
fix  indn all indent {{k_ind}} sphere v_nuc_cmx v_nuc_cmy v_x 5 side out units box

thermo_style custom step temp f_indn[1] f_indn[2] f_indn[3] v_nuc_cmx c_nuc_centreofmass[1] v_nuc_cmy c_nuc_centreofmass[2]
thermo 100
dump 1 cell_group xyzSemEM 100 cell.xyz
dump 2 ecm_glass xyzSemEM 10000 ecm_glass.xyz
#dump 3 cell_group custom 100000 dump.atom_info id type x y z vx vy vz
#dump 3 cell_group custom 100 all_stress.xyz id type x y z c_strs[*] v_vol_stress
dump 3 peri_atom_grp xyzSemEM 100 peri_particles.xyz
variable ts_load equal 14000
variable z_ind_low equal $(v_z_ind-v_ts_load*dt)
run $(v_ts_load)
unfix indn
fix  indn all indent {{k_ind}} sphere v_nuc_cmx v_nuc_cmy v_z_ind_low 5 side out units box
run 59000
unfix indn
variable y equal vdisplace(v_z_ind_low,1)
fix  indn all indent {{k_ind}} sphere v_nuc_cmx v_nuc_cmy v_y 5 side out units box
run 15000
